clingo version 5.5.2
Reading from gen_python.lp ...
Solving...
SATISFIABLE

Models       : 8
Calls        : 1
Time         : 2.961s (Solving: 0.03s 1st Model: 0.01s Unsat: 0.02s)
CPU Time     : 2.959s
[ Calling Python ]
Pre : False ; Post : True
[ Grounding ]
[ Solving ]
[ Solving ended ]
*** Solutions found: 1; skipped: 7
Frequencies of attractor sizes:
{4: 1}
